projected/problems_b25_r0_d7_m100_s666/_DIMACS/b25_d7_r0_s666_039.cnf
p cnf 315 629 25
c p show 1 2 3 4 5 6 7 8 9 10 11 12 13 14 15 16 17 18 19 20 21 22 23 24 25
-26 4 0
-26 3 0
-27 -17 4 0
-28 27 0
-28 26 0
-29 19 22 0
-30 6 0
-30 23 0
-31 30 0
-31 29 0
-32 31 0
-32 28 0
-33 -3 0
-33 -11 0
-34 22 -19 0
-35 34 33 0
-36 -4 4 0
-37 18 1 0
-38 37 36 0
-39 38 0
-39 35 0
-40 39 32 0
-41 3 0
-41 16 0
-42 5 0
-42 15 0
-43 42 0
-43 41 0
-44 18 -9 0
-45 -11 15 0
-46 45 44 0
-47 46 0
-47 43 0
-48 3 0
-48 25 0
-49 24 0
-49 -1 0
-50 49 48 0
-51 20 -7 0
-52 7 -20 0
-53 52 0
-53 51 0
-54 10 -25 0
-55 54 53 0
-56 55 0
-56 50 0
-57 56 0
-57 47 0
-58 -3 -25 0
-59 -24 1 0
-60 59 0
-60 58 0
-61 -20 0
-61 7 0
-62 -7 0
-62 20 0
-63 62 61 0
-64 -10 0
-64 25 0
-65 64 0
-65 63 0
-66 65 60 0
-67 -3 -16 0
-68 -5 -15 0
-69 68 67 0
-70 -18 0
-70 9 0
-71 11 0
-71 -15 0
-72 71 0
-72 70 0
-73 72 69 0
-74 73 0
-74 66 0
-75 74 57 0
-76 75 40 0
-77 -5 0
-77 -7 0
-78 7 0
-78 5 0
-79 78 77 0
-80 2 0
-80 -7 0
-81 80 0
-81 79 0
-82 -1 3 0
-83 10 0
-83 19 0
-84 83 0
-84 82 0
-85 84 81 0
-86 22 9 0
-87 -23 0
-87 -25 0
-88 87 86 0
-89 -7 0
-89 17 0
-90 -9 0
-90 -20 0
-91 90 89 0
-92 91 0
-92 88 0
-93 92 85 0
-94 6 -24 0
-95 24 -6 0
-96 95 0
-96 94 0
-97 -22 18 0
-98 97 0
-98 96 0
-99 -24 10 0
-100 9 12 0
-101 100 0
-101 99 0
-102 101 98 0
-103 4 0
-103 -13 0
-104 -16 11 0
-105 104 0
-105 103 0
-106 -6 11 0
-107 -21 0
-107 -19 0
-108 107 0
-108 106 0
-109 108 105 0
-110 109 0
-110 102 0
-111 110 93 0
-112 111 76 0
-113 24 -14 0
-114 6 -5 0
-115 5 -6 0
-116 115 0
-116 114 0
-117 116 113 0
-118 -9 0
-118 -10 0
-119 5 0
-119 -24 0
-120 119 0
-120 118 0
-121 -5 24 0
-122 9 10 0
-123 122 0
-123 121 0
-124 123 120 0
-125 124 117 0
-126 -3 -4 0
-127 12 25 0
-128 127 126 0
-129 -24 0
-129 9 0
-130 -7 -13 0
-131 130 129 0
-132 131 0
-132 128 0
-133 132 0
-133 125 0
-134 3 0
-134 -18 0
-135 24 0
-135 15 0
-136 135 134 0
-137 -21 0
-137 16 0
-138 24 0
-138 -4 0
-139 138 137 0
-140 139 136 0
-141 4 0
-141 -19 0
-142 -13 0
-142 12 0
-143 142 0
-143 141 0
-144 -10 0
-144 11 0
-145 -21 12 0
-146 145 144 0
-147 146 0
-147 143 0
-148 147 0
-148 140 0
-149 148 0
-149 133 0
-150 9 -8 0
-151 3 0
-151 24 0
-152 -24 0
-152 -3 0
-153 152 151 0
-154 153 150 0
-155 11 0
-155 -22 0
-156 18 0
-156 -13 0
-157 156 155 0
-158 157 154 0
-159 8 21 0
-160 -18 -3 0
-161 160 0
-161 159 0
-162 -1 -22 0
-163 -9 0
-163 -23 0
-164 163 0
-164 162 0
-165 164 0
-165 161 0
-166 165 0
-166 158 0
-167 -15 0
-167 -16 0
-168 11 0
-168 -23 0
-169 168 167 0
-170 17 -25 0
-171 18 0
-171 15 0
-172 171 0
-172 170 0
-173 -18 -15 0
-174 -17 0
-174 25 0
-175 174 0
-175 173 0
-176 175 172 0
-177 176 169 0
-178 5 0
-178 -10 0
-179 22 -21 0
-180 179 178 0
-181 4 0
-181 8 0
-182 -12 0
-182 -13 0
-183 182 181 0
-184 183 0
-184 180 0
-185 -4 -8 0
-186 12 13 0
-187 186 0
-187 185 0
-188 -5 10 0
-189 -22 0
-189 21 0
-190 189 0
-190 188 0
-191 190 0
-191 187 0
-192 191 184 0
-193 192 0
-193 177 0
-194 193 0
-194 166 0
-195 194 0
-195 149 0
-196 195 112 0
-197 -24 0
-197 14 0
-198 -6 0
-198 5 0
-199 -5 0
-199 6 0
-200 199 198 0
-201 200 0
-201 197 0
-202 121 122 0
-203 118 119 0
-204 203 0
-204 202 0
-205 204 0
-205 201 0
-206 3 0
-206 4 0
-207 -12 0
-207 -25 0
-208 207 0
-208 206 0
-209 24 -9 0
-210 7 0
-210 13 0
-211 210 0
-211 209 0
-212 211 208 0
-213 212 205 0
-214 -3 18 0
-215 -24 -15 0
-216 215 0
-216 214 0
-217 21 -16 0
-218 -24 4 0
-219 218 0
-219 217 0
-220 219 0
-220 216 0
-221 -4 19 0
-222 13 -12 0
-223 222 221 0
-224 10 -11 0
-225 21 0
-225 -12 0
-226 225 0
-226 224 0
-227 226 223 0
-228 227 220 0
-229 228 213 0
-230 -9 0
-230 8 0
-231 -3 -24 0
-232 24 3 0
-233 232 0
-233 231 0
-234 233 0
-234 230 0
-235 -11 22 0
-236 -18 13 0
-237 236 0
-237 235 0
-238 237 0
-238 234 0
-239 -8 0
-239 -21 0
-240 18 0
-240 3 0
-241 240 239 0
-242 1 0
-242 22 0
-243 9 23 0
-244 243 242 0
-245 244 241 0
-246 245 238 0
-247 15 16 0
-248 -11 23 0
-249 248 0
-249 247 0
-250 173 174 0
-251 170 171 0
-252 251 0
-252 250 0
-253 252 0
-253 249 0
-254 187 190 0
-255 180 183 0
-256 255 0
-256 254 0
-257 256 253 0
-258 257 246 0
-259 258 229 0
-260 -4 -3 0
-261 17 0
-261 -4 0
-262 261 260 0
-263 -19 0
-263 -22 0
-264 -6 -23 0
-265 264 263 0
-266 265 262 0
-267 3 11 0
-268 -22 0
-268 19 0
-269 268 0
-269 267 0
-270 4 0
-270 -4 0
-271 -18 0
-271 -1 0
-272 271 0
-272 270 0
-273 272 269 0
-274 273 0
-274 266 0
-275 66 73 0
-276 47 56 0
-277 276 0
-277 275 0
-278 277 0
-278 274 0
-279 5 7 0
-280 -7 -5 0
-281 280 0
-281 279 0
-282 -2 7 0
-283 282 281 0
-284 1 0
-284 -3 0
-285 -10 -19 0
-286 285 284 0
-287 286 0
-287 283 0
-288 -22 0
-288 -9 0
-289 23 25 0
-290 289 0
-290 288 0
-291 7 -17 0
-292 9 20 0
-293 292 0
-293 291 0
-294 293 290 0
-295 294 0
-295 287 0
-296 -6 0
-296 24 0
-297 -24 0
-297 6 0
-298 297 296 0
-299 22 0
-299 -18 0
-300 299 298 0
-301 24 0
-301 -10 0
-302 -9 0
-302 -12 0
-303 302 301 0
-304 303 0
-304 300 0
-305 -4 13 0
-306 16 0
-306 -11 0
-307 306 305 0
-308 6 0
-308 -11 0
-309 21 19 0
-310 309 308 0
-311 310 0
-311 307 0
-312 311 304 0
-313 312 0
-313 295 0
-314 313 0
-314 278 0
-315 314 259 0
315 0
196 0
-113 -197 0
-197 -113 0
-116 -200 0
-200 -116 0
-201 -117 0
-117 -201 0
-121 -119 0
-119 -121 0
-118 -122 0
-122 -118 0
-204 -124 0
-124 -204 0
-125 -205 0
-205 -125 0
-126 -206 0
-206 -126 0
-207 -127 0
-208 -128 0
-128 -208 0
-209 -129 0
-129 -209 0
-210 -130 0
-130 -210 0
-131 -211 0
-132 -212 0
-212 -132 0
-213 -133 0
-133 -213 0
-134 -214 0
-135 -215 0
-136 -216 0
-137 -217 0
-217 -137 0
-218 -138 0
-219 -139 0
-139 -219 0
-140 -220 0
-141 -221 0
-222 -142 0
-142 -222 0
-143 -223 0
-144 -224 0
-225 -145 0
-145 -225 0
-146 -226 0
-147 -227 0
-148 -228 0
-149 -229 0
-229 -149 0
-150 -230 0
-233 -153 0
-153 -233 0
-154 -234 0
-155 -235 0
-236 -156 0
-156 -236 0
-157 -237 0
-158 -238 0
-239 -159 0
-240 -160 0
-241 -161 0
-242 -162 0
-163 -243 0
-243 -163 0
-244 -164 0
-245 -165 0
-165 -245 0
-166 -246 0
-246 -166 0
-247 -167 0
-167 -247 0
-248 -168 0
-168 -248 0
-169 -249 0
-249 -169 0
-171 -173 0
-170 -174 0
-174 -170 0
-252 -176 0
-253 -177 0
-185 -181 0
-186 -182 0
-187 -183 0
-183 -187 0
-178 -188 0
-188 -178 0
-189 -179 0
-190 -180 0
-256 -192 0
-257 -193 0
-258 -194 0
-259 -195 0
-260 -26 0
-27 -261 0
-261 -27 0
-262 -28 0
-28 -262 0
-29 -263 0
-263 -29 0
-30 -264 0
-264 -30 0
-265 -31 0
-31 -265 0
-32 -266 0
-266 -32 0
-267 -33 0
-33 -267 0
-268 -34 0
-34 -268 0
-35 -269 0
-270 -36 0
-36 -270 0
-271 -37 0
-37 -271 0
-38 -272 0
-39 -273 0
-273 -39 0
-274 -40 0
-40 -274 0
-58 -48 0
-48 -58 0
-49 -59 0
-50 -60 0
-60 -50 0
-53 -63 0
-54 -64 0
-55 -65 0
-65 -55 0
-66 -56 0
-56 -66 0
-41 -67 0
-68 -42 0
-42 -68 0
-43 -69 0
-44 -70 0
-70 -44 0
-71 -45 0
-72 -46 0
-46 -72 0
-47 -73 0
-73 -47 0
-277 -75 0
-75 -277 0
-76 -278 0
-278 -76 0
-281 -79 0
-79 -281 0
-80 -282 0
-81 -283 0
-283 -81 0
-82 -284 0
-285 -83 0
-83 -285 0
-84 -286 0
-286 -84 0
-287 -85 0
-85 -287 0
-86 -288 0
-87 -289 0
-88 -290 0
-291 -89 0
-292 -90 0
-293 -91 0
-91 -293 0
-92 -294 0
-93 -295 0
-96 -298 0
-298 -96 0
-299 -97 0
-300 -98 0
-98 -300 0
-99 -301 0
-301 -99 0
-302 -100 0
-303 -101 0
-101 -303 0
-102 -304 0
-305 -103 0
-103 -305 0
-306 -104 0
-104 -306 0
-105 -307 0
-308 -106 0
-107 -309 0
-309 -107 0
-310 -108 0
-108 -310 0
-109 -311 0
-110 -312 0
-111 -313 0
-313 -111 0
-314 -112 0
-112 -314 0
