projected/problems_b25_r0_d7_m100_s666/b25_d7_r0_s666_039.smt2
(set-logic QF_UF)
(declare-fun A0 () Bool)
(declare-fun A1 () Bool)
(declare-fun A2 () Bool)
(declare-fun A3 () Bool)
(declare-fun A4 () Bool)
(declare-fun A5 () Bool)
(declare-fun A6 () Bool)
(declare-fun A7 () Bool)
(declare-fun A8 () Bool)
(declare-fun A9 () Bool)
(declare-fun A10 () Bool)
(declare-fun A11 () Bool)
(declare-fun A12 () Bool)
(declare-fun A13 () Bool)
(declare-fun A14 () Bool)
(declare-fun A15 () Bool)
(declare-fun A16 () Bool)
(declare-fun A17 () Bool)
(declare-fun A18 () Bool)
(declare-fun A19 () Bool)
(declare-fun A20 () Bool)
(declare-fun A21 () Bool)
(declare-fun A22 () Bool)
(declare-fun A23 () Bool)
(declare-fun A24 () Bool)
(assert (let ((.def_0 (not A13))) (let ((.def_1 (or A23 .def_0))) (let ((.def_2 (not .def_1))) (let ((.def_3 (not A5))) (let ((.def_4 (not A4))) (let ((.def_5 (= .def_4 .def_3))) (let ((.def_6 (not .def_5))) (let ((.def_7 (and .def_6 .def_2))) (let ((.def_8 (not .def_7))) (let ((.def_9 (or .def_4 A23))) (let ((.def_10 (not .def_9))) (let ((.def_11 (not A9))) (let ((.def_12 (not A8))) (let ((.def_13 (and .def_12 .def_11))) (let ((.def_14 (not .def_13))) (let ((.def_15 (= .def_14 .def_10))) (let ((.def_16 (not .def_15))) (let ((.def_17 (or .def_16 .def_8))) (let ((.def_18 (not .def_17))) (let ((.def_19 (not A3))) (let ((.def_20 (not A2))) (let ((.def_21 (or .def_20 .def_19))) (let ((.def_22 (not .def_21))) (let ((.def_23 (not A24))) (let ((.def_24 (not A11))) (let ((.def_25 (and .def_24 .def_23))) (let ((.def_26 (and .def_25 .def_22))) (let ((.def_27 (not .def_26))) (let ((.def_28 (or A23 .def_12))) (let ((.def_29 (not .def_28))) (let ((.def_30 (and A6 A12))) (let ((.def_31 (not .def_30))) (let ((.def_32 (or .def_31 .def_29))) (let ((.def_33 (and .def_32 .def_27))) (let ((.def_34 (not .def_33))) (let ((.def_35 (or .def_34 .def_18))) (let ((.def_36 (not .def_35))) (let ((.def_37 (not A17))) (let ((.def_38 (and A2 .def_37))) (let ((.def_39 (and A23 A14))) (let ((.def_40 (or .def_39 .def_38))) (let ((.def_41 (not A20))) (let ((.def_42 (and .def_41 A15))) (let ((.def_43 (not .def_42))) (let ((.def_44 (not A23))) (let ((.def_45 (or .def_44 A3))) (let ((.def_46 (and .def_45 .def_43))) (let ((.def_47 (not .def_46))) (let ((.def_48 (or .def_47 .def_40))) (let ((.def_49 (not A18))) (let ((.def_50 (and A3 .def_49))) (let ((.def_51 (or A12 .def_24))) (let ((.def_52 (not .def_51))) (let ((.def_53 (and .def_52 .def_50))) (let ((.def_54 (and .def_11 A10))) (let ((.def_55 (and A20 .def_24))) (let ((.def_56 (not .def_55))) (let ((.def_57 (or .def_56 .def_54))) (let ((.def_58 (and .def_57 .def_53))) (let ((.def_59 (and .def_58 .def_48))) (let ((.def_60 (and .def_59 .def_36))) (let ((.def_61 (not .def_60))) (let ((.def_62 (not A7))) (let ((.def_63 (or A8 .def_62))) (let ((.def_64 (= .def_44 A2))) (let ((.def_65 (not .def_64))) (let ((.def_66 (or .def_65 .def_63))) (let ((.def_67 (not A21))) (let ((.def_68 (and A10 .def_67))) (let ((.def_69 (or .def_37 A12))) (let ((.def_70 (not .def_69))) (let ((.def_71 (or .def_70 .def_68))) (let ((.def_72 (or .def_71 .def_66))) (let ((.def_73 (and .def_62 .def_41))) (let ((.def_74 (and A17 A2))) (let ((.def_75 (or .def_74 .def_73))) (let ((.def_76 (and A0 A21))) (let ((.def_77 (not A22))) (let ((.def_78 (and .def_12 .def_77))) (let ((.def_79 (not .def_78))) (let ((.def_80 (or .def_79 .def_76))) (let ((.def_81 (or .def_80 .def_75))) (let ((.def_82 (not .def_81))) (let ((.def_83 (and .def_82 .def_72))) (let ((.def_84 (not .def_83))) (let ((.def_85 (or A14 A15))) (let ((.def_86 (not .def_85))) (let ((.def_87 (not A10))) (let ((.def_88 (or .def_87 A22))) (let ((.def_89 (not .def_88))) (let ((.def_90 (or .def_89 .def_86))) (let ((.def_91 (not .def_90))) (let ((.def_92 (and A17 A14))) (let ((.def_93 (or A16 .def_23))) (let ((.def_94 (not .def_93))) (let ((.def_95 (= .def_94 .def_92))) (let ((.def_96 (and .def_95 .def_91))) (let ((.def_97 (or .def_19 .def_62))) (let ((.def_98 (or A11 A12))) (let ((.def_99 (and .def_98 .def_97))) (let ((.def_100 (not .def_99))) (let ((.def_101 (and A4 .def_11))) (let ((.def_102 (not .def_101))) (let ((.def_103 (and .def_67 A20))) (let ((.def_104 (and .def_103 .def_102))) (let ((.def_105 (= .def_104 .def_100))) (let ((.def_106 (or .def_105 .def_96))) (let ((.def_107 (or .def_106 .def_84))) (let ((.def_108 (or .def_107 .def_61))) (let ((.def_109 (or .def_19 .def_20))) (let ((.def_110 (not A16))) (let ((.def_111 (or .def_110 A3))) (let ((.def_112 (not .def_111))) (let ((.def_113 (or .def_112 .def_109))) (let ((.def_114 (not .def_113))) (let ((.def_115 (or A18 A21))) (let ((.def_116 (not .def_115))) (let ((.def_117 (and A5 A22))) (let ((.def_118 (not .def_117))) (let ((.def_119 (or .def_118 .def_116))) (let ((.def_120 (not .def_119))) (let ((.def_121 (and .def_120 .def_114))) (let ((.def_122 (not .def_121))) (let ((.def_123 (or A2 A10))) (let ((.def_124 (not .def_123))) (let ((.def_125 (and .def_67 A18))) (let ((.def_126 (not .def_125))) (let ((.def_127 (or .def_126 .def_124))) (let ((.def_128 (and A3 .def_19))) (let ((.def_129 (not .def_128))) (let ((.def_130 (not A0))) (let ((.def_131 (and .def_37 .def_130))) (let ((.def_132 (not .def_131))) (let ((.def_133 (or .def_132 .def_129))) (let ((.def_134 (and .def_133 .def_127))) (let ((.def_135 (not .def_134))) (let ((.def_136 (and .def_135 .def_122))) (let ((.def_137 (not .def_136))) (let ((.def_138 (or .def_20 .def_23))) (let ((.def_139 (not .def_138))) (let ((.def_140 (and A23 .def_130))) (let ((.def_141 (or .def_140 .def_139))) (let ((.def_142 (not .def_141))) (let ((.def_143 (not A19))) (let ((.def_144 (not A6))) (let ((.def_145 (= .def_144 .def_143))) (let ((.def_146 (or A9 .def_23))) (let ((.def_147 (or .def_146 .def_145))) (let ((.def_148 (not .def_147))) (let ((.def_149 (or .def_148 .def_142))) (let ((.def_150 (not .def_149))) (let ((.def_151 (and A2 A15))) (let ((.def_152 (not A14))) (let ((.def_153 (or .def_4 .def_152))) (let ((.def_154 (not .def_153))) (let ((.def_155 (and .def_154 .def_151))) (let ((.def_156 (or A17 .def_12))) (let ((.def_157 (not .def_156))) (let ((.def_158 (and A10 .def_152))) (let ((.def_159 (and .def_158 .def_157))) (let ((.def_160 (not .def_159))) (let ((.def_161 (and .def_160 .def_155))) (let ((.def_162 (not .def_161))) (let ((.def_163 (= .def_162 .def_150))) (let ((.def_164 (not .def_163))) (let ((.def_165 (or .def_164 .def_137))) (let ((.def_166 (not .def_165))) (let ((.def_167 (= A6 .def_4))) (let ((.def_168 (not .def_167))) (let ((.def_169 (and A1 .def_144))) (let ((.def_170 (and .def_169 .def_168))) (let ((.def_171 (not .def_170))) (let ((.def_172 (or .def_130 A2))) (let ((.def_173 (or .def_11 .def_49))) (let ((.def_174 (not .def_173))) (let ((.def_175 (and .def_174 .def_172))) (let ((.def_176 (not .def_175))) (let ((.def_177 (and .def_176 .def_171))) (let ((.def_178 (not .def_177))) (let ((.def_179 (or A21 A8))) (let ((.def_180 (and .def_77 .def_23))) (let ((.def_181 (or .def_180 .def_179))) (let ((.def_182 (or A6 .def_110))) (let ((.def_183 (or A8 A19))) (let ((.def_184 (and .def_183 .def_182))) (let ((.def_185 (not .def_184))) (let ((.def_186 (and .def_185 .def_181))) (let ((.def_187 (or .def_186 .def_178))) (let ((.def_188 (= .def_44 .def_3))) (let ((.def_189 (not .def_188))) (let ((.def_190 (and A21 .def_37))) (let ((.def_191 (or .def_190 .def_189))) (let ((.def_192 (not .def_191))) (let ((.def_193 (or .def_44 A9))) (let ((.def_194 (not .def_193))) (let ((.def_195 (and .def_12 .def_24))) (let ((.def_196 (or .def_195 .def_194))) (let ((.def_197 (not .def_196))) (let ((.def_198 (or .def_197 .def_192))) (let ((.def_199 (or .def_19 A12))) (let ((.def_200 (not .def_199))) (let ((.def_201 (and A15 .def_87))) (let ((.def_202 (not .def_201))) (let ((.def_203 (and .def_202 .def_200))) (let ((.def_204 (and A5 .def_87))) (let ((.def_205 (and .def_41 .def_49))) (let ((.def_206 (not .def_205))) (let ((.def_207 (or .def_206 .def_204))) (let ((.def_208 (not .def_207))) (let ((.def_209 (or .def_208 .def_203))) (let ((.def_210 (and .def_209 .def_198))) (let ((.def_211 (or .def_210 .def_187))) (let ((.def_212 (not .def_211))) (let ((.def_213 (and .def_212 .def_166))) (let ((.def_214 (not .def_213))) (let ((.def_215 (= .def_214 .def_108))) .def_215)))))))))))))))))))))))))))))))))))))))))))))))))))))))))))))))))))))))))))))))))))))))))))))))))))))))))))))))))))))))))))))))))))))))))))))))))))))))))))))))))))))))))))))))))))))))))))))))))))))))))))))))))))))))))
(check-sat)
